;; sat

(declare-const x1 sl.list.loc)
(declare-const x2 sl.list.loc)
(declare-const x3 sl.list.loc)
(declare-const x4 sl.list.loc)
(declare-const x5 sl.list.loc)
(declare-const x6 sl.list.loc)
(declare-const x7 sl.list.loc)
(declare-const x8 sl.list.loc)
(declare-const x9 sl.list.loc)

(assert (sl.sepcon (sl.sepcon (sl.sepcon (sl.sepcon (sl.sepcon (sl.sepcon (sl.list.eq sl.list.null sl.list.null)
 (sl.list.neq x8 x9)
)
 (sl.list.neq x4 x7)
)
 (sl.list.neq x1 x8)
)
 (sl.list.neq x2 x6)
)
 (sl.list.neq x2 x5)
)
 (sl.sepcon (sl.sepcon (sl.sepcon (sl.sepcon (sl.sepcon (sl.sepcon (sl.sepcon (sl.sepcon (sl.list.seg x2 x5)
 (sl.list.seg x2 x7)
)
 (sl.list.seg x9 x8)
)
 (sl.list.seg x9 x6)
)
 (sl.list.seg x7 x1)
)
 (sl.list.seg x3 x4)
)
 (sl.list.seg x8 x2)
)
 (sl.list.seg x8 x3)
)
 (sl.list.seg x8 x4)
)
)
)

